single_objective/SL-DABL/OP/problems/op/OPLib-master/solutions/ea4op/gen3/tsp225-gen3-50.sol
NAME : tsp225
TYPE : OP
DIMENSION : 225
COST_LIMIT : 1958
ROUTE_NODES : 122
ROUTE_SCORE : 7488
ROUTE_COST : 1958
NODE_SEQUENCE_SECTION
1
3
4
48
224
199
133
190
225
207
2
59
58
61
60
116
223
115
114
113
112
111
110
109
108
107
106
105
220
104
103
102
101
100
99
98
216
219
217
206
202
30
77
78
97
96
95
209
94
93
92
91
90
87
210
84
83
82
85
86
131
211
130
222
129
132
215
134
135
183
136
137
163
162
161
160
159
138
139
140
141
142
201
143
144
157
156
155
154
153
146
147
148
149
152
151
214
212
168
124
123
122
121
175
120
185
119
118
117
188
27
189
205
191
192
196
193
218
194
195
197
198
-1
DEPOT_SECTION
1
-1
EOF
